unsat
(:max-memory         18.09
 :memory             17.96
 :nlsat-conflicts    1
 :nlsat-propagations 3
 :nlsat-stages       1
 :num-allocs         7626
 :rlimit-count       2755
 :time               0.00
 :total-time         0.02)
